200
1000
165
165
163
163
163
162
161
160
160
160
158
157
157
156
156
156
155
155
154
153
151
151
150
148
148
147
146
146
146
145
144
144
144
143
143
142
141
140
140
139
139
139
138
138
138
137
136
136
136
135
135
135
134
134
133
133
133
133
132
129
129
128
125
124
123
122
122
122
122
121
121
120
119
119
118
118
118
116
116
115
115
115
114
114
114
114
113
113
112
112
112
111
111
111
110
110
110
110
109
108
108
105
104
104
104
103
103
103
102
102
102
101
100
100
98
98
97
96
95
94
94
94
91
90
89
89
89
88
88
87
85
85
85
84
83
83
82
82
82
82
82
82
81
81
81
81
80
79
79
79
78
78
78
77
76
75
74
74
74
74
73
73
73
72
72
72
72
71
70
70
70
70
69
69
67
66
65
65
64
64
64
63
62
62
62
61
61
61
61
61
59
59
59
59
58
58
57
57
57
57
